certificates/rado_a5_c197_N39.drat
-39 0
37 0
-25 0
23 0
27 0
-11 0
-35 0
-15 0
9 0
13 0
33 0
17 0
3 0
-21 0
-1 0
-5 0
-29 0
19 0
7 0
31 0
0
